NAME : XML100_3335_03
DIMENSION : 101
NB_CLUSTERS : 3
CLUSTERING_ALG : KMedoids
CLUSTERING_PARAMS : k(2)
CLUSTERS
1 0
2 1 7 11 12 17 19 20 23 24 26 27 33 39 41 42 46 47 51 52 53 57 64 66 67 74 76 78 80 89 95 98 100
3 2 3 4 5 6 8 9 10 13 14 15 16 18 21 22 25 28 29 30 31 32 34 35 36 37 38 40 43 44 45 48 49 50 54 55 56 58 59 60 61 62 63 65 68 69 70 71 72 73 75 77 79 81 82 83 84 85 86 87 88 90 91 92 93 94 96 97 99
EOF